c *********************************
c * Circuit generated by BenCGen
c *
c * RippleCarryAdder_142_142_142_InOutT
c *
c * Ports with 1 gate(s): 1
c * Ports with 2 gate(s): 711
c * Total gates: 712
c *********************************
p cnf 996 2419
1 429 0
-1 -429 0
1 -428 0
429 -428 0
-1 -429 428 0
1 143 -431 0
-1 143 431 0
1 -143 431 0
-1 -143 -431 0
431 428 -285 0
-431 428 285 0
431 -428 285 0
-431 -428 -285 0
428 -432 0
431 -432 0
-428 -431 432 0
143 -433 0
1 -433 0
-143 -1 433 0
-432 430 0
-433 430 0
432 433 -430 0
2 144 -435 0
-2 144 435 0
2 -144 435 0
-2 -144 -435 0
435 430 -286 0
-435 430 286 0
435 -430 286 0
-435 -430 -286 0
430 -436 0
435 -436 0
-430 -435 436 0
144 -437 0
2 -437 0
-144 -2 437 0
-436 434 0
-437 434 0
436 437 -434 0
3 145 -439 0
-3 145 439 0
3 -145 439 0
-3 -145 -439 0
439 434 -287 0
-439 434 287 0
439 -434 287 0
-439 -434 -287 0
434 -440 0
439 -440 0
-434 -439 440 0
145 -441 0
3 -441 0
-145 -3 441 0
-440 438 0
-441 438 0
440 441 -438 0
4 146 -443 0
-4 146 443 0
4 -146 443 0
-4 -146 -443 0
443 438 -288 0
-443 438 288 0
443 -438 288 0
-443 -438 -288 0
438 -444 0
443 -444 0
-438 -443 444 0
146 -445 0
4 -445 0
-146 -4 445 0
-444 442 0
-445 442 0
444 445 -442 0
5 147 -447 0
-5 147 447 0
5 -147 447 0
-5 -147 -447 0
447 442 -289 0
-447 442 289 0
447 -442 289 0
-447 -442 -289 0
442 -448 0
447 -448 0
-442 -447 448 0
147 -449 0
5 -449 0
-147 -5 449 0
-448 446 0
-449 446 0
448 449 -446 0
6 148 -451 0
-6 148 451 0
6 -148 451 0
-6 -148 -451 0
451 446 -290 0
-451 446 290 0
451 -446 290 0
-451 -446 -290 0
446 -452 0
451 -452 0
-446 -451 452 0
148 -453 0
6 -453 0
-148 -6 453 0
-452 450 0
-453 450 0
452 453 -450 0
7 149 -455 0
-7 149 455 0
7 -149 455 0
-7 -149 -455 0
455 450 -291 0
-455 450 291 0
455 -450 291 0
-455 -450 -291 0
450 -456 0
455 -456 0
-450 -455 456 0
149 -457 0
7 -457 0
-149 -7 457 0
-456 454 0
-457 454 0
456 457 -454 0
8 150 -459 0
-8 150 459 0
8 -150 459 0
-8 -150 -459 0
459 454 -292 0
-459 454 292 0
459 -454 292 0
-459 -454 -292 0
454 -460 0
459 -460 0
-454 -459 460 0
150 -461 0
8 -461 0
-150 -8 461 0
-460 458 0
-461 458 0
460 461 -458 0
9 151 -463 0
-9 151 463 0
9 -151 463 0
-9 -151 -463 0
463 458 -293 0
-463 458 293 0
463 -458 293 0
-463 -458 -293 0
458 -464 0
463 -464 0
-458 -463 464 0
151 -465 0
9 -465 0
-151 -9 465 0
-464 462 0
-465 462 0
464 465 -462 0
10 152 -467 0
-10 152 467 0
10 -152 467 0
-10 -152 -467 0
467 462 -294 0
-467 462 294 0
467 -462 294 0
-467 -462 -294 0
462 -468 0
467 -468 0
-462 -467 468 0
152 -469 0
10 -469 0
-152 -10 469 0
-468 466 0
-469 466 0
468 469 -466 0
11 153 -471 0
-11 153 471 0
11 -153 471 0
-11 -153 -471 0
471 466 -295 0
-471 466 295 0
471 -466 295 0
-471 -466 -295 0
466 -472 0
471 -472 0
-466 -471 472 0
153 -473 0
11 -473 0
-153 -11 473 0
-472 470 0
-473 470 0
472 473 -470 0
12 154 -475 0
-12 154 475 0
12 -154 475 0
-12 -154 -475 0
475 470 -296 0
-475 470 296 0
475 -470 296 0
-475 -470 -296 0
470 -476 0
475 -476 0
-470 -475 476 0
154 -477 0
12 -477 0
-154 -12 477 0
-476 474 0
-477 474 0
476 477 -474 0
13 155 -479 0
-13 155 479 0
13 -155 479 0
-13 -155 -479 0
479 474 -297 0
-479 474 297 0
479 -474 297 0
-479 -474 -297 0
474 -480 0
479 -480 0
-474 -479 480 0
155 -481 0
13 -481 0
-155 -13 481 0
-480 478 0
-481 478 0
480 481 -478 0
14 156 -483 0
-14 156 483 0
14 -156 483 0
-14 -156 -483 0
483 478 -298 0
-483 478 298 0
483 -478 298 0
-483 -478 -298 0
478 -484 0
483 -484 0
-478 -483 484 0
156 -485 0
14 -485 0
-156 -14 485 0
-484 482 0
-485 482 0
484 485 -482 0
15 157 -487 0
-15 157 487 0
15 -157 487 0
-15 -157 -487 0
487 482 -299 0
-487 482 299 0
487 -482 299 0
-487 -482 -299 0
482 -488 0
487 -488 0
-482 -487 488 0
157 -489 0
15 -489 0
-157 -15 489 0
-488 486 0
-489 486 0
488 489 -486 0
16 158 -491 0
-16 158 491 0
16 -158 491 0
-16 -158 -491 0
491 486 -300 0
-491 486 300 0
491 -486 300 0
-491 -486 -300 0
486 -492 0
491 -492 0
-486 -491 492 0
158 -493 0
16 -493 0
-158 -16 493 0
-492 490 0
-493 490 0
492 493 -490 0
17 159 -495 0
-17 159 495 0
17 -159 495 0
-17 -159 -495 0
495 490 -301 0
-495 490 301 0
495 -490 301 0
-495 -490 -301 0
490 -496 0
495 -496 0
-490 -495 496 0
159 -497 0
17 -497 0
-159 -17 497 0
-496 494 0
-497 494 0
496 497 -494 0
18 160 -499 0
-18 160 499 0
18 -160 499 0
-18 -160 -499 0
499 494 -302 0
-499 494 302 0
499 -494 302 0
-499 -494 -302 0
494 -500 0
499 -500 0
-494 -499 500 0
160 -501 0
18 -501 0
-160 -18 501 0
-500 498 0
-501 498 0
500 501 -498 0
19 161 -503 0
-19 161 503 0
19 -161 503 0
-19 -161 -503 0
503 498 -303 0
-503 498 303 0
503 -498 303 0
-503 -498 -303 0
498 -504 0
503 -504 0
-498 -503 504 0
161 -505 0
19 -505 0
-161 -19 505 0
-504 502 0
-505 502 0
504 505 -502 0
20 162 -507 0
-20 162 507 0
20 -162 507 0
-20 -162 -507 0
507 502 -304 0
-507 502 304 0
507 -502 304 0
-507 -502 -304 0
502 -508 0
507 -508 0
-502 -507 508 0
162 -509 0
20 -509 0
-162 -20 509 0
-508 506 0
-509 506 0
508 509 -506 0
21 163 -511 0
-21 163 511 0
21 -163 511 0
-21 -163 -511 0
511 506 -305 0
-511 506 305 0
511 -506 305 0
-511 -506 -305 0
506 -512 0
511 -512 0
-506 -511 512 0
163 -513 0
21 -513 0
-163 -21 513 0
-512 510 0
-513 510 0
512 513 -510 0
22 164 -515 0
-22 164 515 0
22 -164 515 0
-22 -164 -515 0
515 510 -306 0
-515 510 306 0
515 -510 306 0
-515 -510 -306 0
510 -516 0
515 -516 0
-510 -515 516 0
164 -517 0
22 -517 0
-164 -22 517 0
-516 514 0
-517 514 0
516 517 -514 0
23 165 -519 0
-23 165 519 0
23 -165 519 0
-23 -165 -519 0
519 514 -307 0
-519 514 307 0
519 -514 307 0
-519 -514 -307 0
514 -520 0
519 -520 0
-514 -519 520 0
165 -521 0
23 -521 0
-165 -23 521 0
-520 518 0
-521 518 0
520 521 -518 0
24 166 -523 0
-24 166 523 0
24 -166 523 0
-24 -166 -523 0
523 518 -308 0
-523 518 308 0
523 -518 308 0
-523 -518 -308 0
518 -524 0
523 -524 0
-518 -523 524 0
166 -525 0
24 -525 0
-166 -24 525 0
-524 522 0
-525 522 0
524 525 -522 0
25 167 -527 0
-25 167 527 0
25 -167 527 0
-25 -167 -527 0
527 522 -309 0
-527 522 309 0
527 -522 309 0
-527 -522 -309 0
522 -528 0
527 -528 0
-522 -527 528 0
167 -529 0
25 -529 0
-167 -25 529 0
-528 526 0
-529 526 0
528 529 -526 0
26 168 -531 0
-26 168 531 0
26 -168 531 0
-26 -168 -531 0
531 526 -310 0
-531 526 310 0
531 -526 310 0
-531 -526 -310 0
526 -532 0
531 -532 0
-526 -531 532 0
168 -533 0
26 -533 0
-168 -26 533 0
-532 530 0
-533 530 0
532 533 -530 0
27 169 -535 0
-27 169 535 0
27 -169 535 0
-27 -169 -535 0
535 530 -311 0
-535 530 311 0
535 -530 311 0
-535 -530 -311 0
530 -536 0
535 -536 0
-530 -535 536 0
169 -537 0
27 -537 0
-169 -27 537 0
-536 534 0
-537 534 0
536 537 -534 0
28 170 -539 0
-28 170 539 0
28 -170 539 0
-28 -170 -539 0
539 534 -312 0
-539 534 312 0
539 -534 312 0
-539 -534 -312 0
534 -540 0
539 -540 0
-534 -539 540 0
170 -541 0
28 -541 0
-170 -28 541 0
-540 538 0
-541 538 0
540 541 -538 0
29 171 -543 0
-29 171 543 0
29 -171 543 0
-29 -171 -543 0
543 538 -313 0
-543 538 313 0
543 -538 313 0
-543 -538 -313 0
538 -544 0
543 -544 0
-538 -543 544 0
171 -545 0
29 -545 0
-171 -29 545 0
-544 542 0
-545 542 0
544 545 -542 0
30 172 -547 0
-30 172 547 0
30 -172 547 0
-30 -172 -547 0
547 542 -314 0
-547 542 314 0
547 -542 314 0
-547 -542 -314 0
542 -548 0
547 -548 0
-542 -547 548 0
172 -549 0
30 -549 0
-172 -30 549 0
-548 546 0
-549 546 0
548 549 -546 0
31 173 -551 0
-31 173 551 0
31 -173 551 0
-31 -173 -551 0
551 546 -315 0
-551 546 315 0
551 -546 315 0
-551 -546 -315 0
546 -552 0
551 -552 0
-546 -551 552 0
173 -553 0
31 -553 0
-173 -31 553 0
-552 550 0
-553 550 0
552 553 -550 0
32 174 -555 0
-32 174 555 0
32 -174 555 0
-32 -174 -555 0
555 550 -316 0
-555 550 316 0
555 -550 316 0
-555 -550 -316 0
550 -556 0
555 -556 0
-550 -555 556 0
174 -557 0
32 -557 0
-174 -32 557 0
-556 554 0
-557 554 0
556 557 -554 0
33 175 -559 0
-33 175 559 0
33 -175 559 0
-33 -175 -559 0
559 554 -317 0
-559 554 317 0
559 -554 317 0
-559 -554 -317 0
554 -560 0
559 -560 0
-554 -559 560 0
175 -561 0
33 -561 0
-175 -33 561 0
-560 558 0
-561 558 0
560 561 -558 0
34 176 -563 0
-34 176 563 0
34 -176 563 0
-34 -176 -563 0
563 558 -318 0
-563 558 318 0
563 -558 318 0
-563 -558 -318 0
558 -564 0
563 -564 0
-558 -563 564 0
176 -565 0
34 -565 0
-176 -34 565 0
-564 562 0
-565 562 0
564 565 -562 0
35 177 -567 0
-35 177 567 0
35 -177 567 0
-35 -177 -567 0
567 562 -319 0
-567 562 319 0
567 -562 319 0
-567 -562 -319 0
562 -568 0
567 -568 0
-562 -567 568 0
177 -569 0
35 -569 0
-177 -35 569 0
-568 566 0
-569 566 0
568 569 -566 0
36 178 -571 0
-36 178 571 0
36 -178 571 0
-36 -178 -571 0
571 566 -320 0
-571 566 320 0
571 -566 320 0
-571 -566 -320 0
566 -572 0
571 -572 0
-566 -571 572 0
178 -573 0
36 -573 0
-178 -36 573 0
-572 570 0
-573 570 0
572 573 -570 0
37 179 -575 0
-37 179 575 0
37 -179 575 0
-37 -179 -575 0
575 570 -321 0
-575 570 321 0
575 -570 321 0
-575 -570 -321 0
570 -576 0
575 -576 0
-570 -575 576 0
179 -577 0
37 -577 0
-179 -37 577 0
-576 574 0
-577 574 0
576 577 -574 0
38 180 -579 0
-38 180 579 0
38 -180 579 0
-38 -180 -579 0
579 574 -322 0
-579 574 322 0
579 -574 322 0
-579 -574 -322 0
574 -580 0
579 -580 0
-574 -579 580 0
180 -581 0
38 -581 0
-180 -38 581 0
-580 578 0
-581 578 0
580 581 -578 0
39 181 -583 0
-39 181 583 0
39 -181 583 0
-39 -181 -583 0
583 578 -323 0
-583 578 323 0
583 -578 323 0
-583 -578 -323 0
578 -584 0
583 -584 0
-578 -583 584 0
181 -585 0
39 -585 0
-181 -39 585 0
-584 582 0
-585 582 0
584 585 -582 0
40 182 -587 0
-40 182 587 0
40 -182 587 0
-40 -182 -587 0
587 582 -324 0
-587 582 324 0
587 -582 324 0
-587 -582 -324 0
582 -588 0
587 -588 0
-582 -587 588 0
182 -589 0
40 -589 0
-182 -40 589 0
-588 586 0
-589 586 0
588 589 -586 0
41 183 -591 0
-41 183 591 0
41 -183 591 0
-41 -183 -591 0
591 586 -325 0
-591 586 325 0
591 -586 325 0
-591 -586 -325 0
586 -592 0
591 -592 0
-586 -591 592 0
183 -593 0
41 -593 0
-183 -41 593 0
-592 590 0
-593 590 0
592 593 -590 0
42 184 -595 0
-42 184 595 0
42 -184 595 0
-42 -184 -595 0
595 590 -326 0
-595 590 326 0
595 -590 326 0
-595 -590 -326 0
590 -596 0
595 -596 0
-590 -595 596 0
184 -597 0
42 -597 0
-184 -42 597 0
-596 594 0
-597 594 0
596 597 -594 0
43 185 -599 0
-43 185 599 0
43 -185 599 0
-43 -185 -599 0
599 594 -327 0
-599 594 327 0
599 -594 327 0
-599 -594 -327 0
594 -600 0
599 -600 0
-594 -599 600 0
185 -601 0
43 -601 0
-185 -43 601 0
-600 598 0
-601 598 0
600 601 -598 0
44 186 -603 0
-44 186 603 0
44 -186 603 0
-44 -186 -603 0
603 598 -328 0
-603 598 328 0
603 -598 328 0
-603 -598 -328 0
598 -604 0
603 -604 0
-598 -603 604 0
186 -605 0
44 -605 0
-186 -44 605 0
-604 602 0
-605 602 0
604 605 -602 0
45 187 -607 0
-45 187 607 0
45 -187 607 0
-45 -187 -607 0
607 602 -329 0
-607 602 329 0
607 -602 329 0
-607 -602 -329 0
602 -608 0
607 -608 0
-602 -607 608 0
187 -609 0
45 -609 0
-187 -45 609 0
-608 606 0
-609 606 0
608 609 -606 0
46 188 -611 0
-46 188 611 0
46 -188 611 0
-46 -188 -611 0
611 606 -330 0
-611 606 330 0
611 -606 330 0
-611 -606 -330 0
606 -612 0
611 -612 0
-606 -611 612 0
188 -613 0
46 -613 0
-188 -46 613 0
-612 610 0
-613 610 0
612 613 -610 0
47 189 -615 0
-47 189 615 0
47 -189 615 0
-47 -189 -615 0
615 610 -331 0
-615 610 331 0
615 -610 331 0
-615 -610 -331 0
610 -616 0
615 -616 0
-610 -615 616 0
189 -617 0
47 -617 0
-189 -47 617 0
-616 614 0
-617 614 0
616 617 -614 0
48 190 -619 0
-48 190 619 0
48 -190 619 0
-48 -190 -619 0
619 614 -332 0
-619 614 332 0
619 -614 332 0
-619 -614 -332 0
614 -620 0
619 -620 0
-614 -619 620 0
190 -621 0
48 -621 0
-190 -48 621 0
-620 618 0
-621 618 0
620 621 -618 0
49 191 -623 0
-49 191 623 0
49 -191 623 0
-49 -191 -623 0
623 618 -333 0
-623 618 333 0
623 -618 333 0
-623 -618 -333 0
618 -624 0
623 -624 0
-618 -623 624 0
191 -625 0
49 -625 0
-191 -49 625 0
-624 622 0
-625 622 0
624 625 -622 0
50 192 -627 0
-50 192 627 0
50 -192 627 0
-50 -192 -627 0
627 622 -334 0
-627 622 334 0
627 -622 334 0
-627 -622 -334 0
622 -628 0
627 -628 0
-622 -627 628 0
192 -629 0
50 -629 0
-192 -50 629 0
-628 626 0
-629 626 0
628 629 -626 0
51 193 -631 0
-51 193 631 0
51 -193 631 0
-51 -193 -631 0
631 626 -335 0
-631 626 335 0
631 -626 335 0
-631 -626 -335 0
626 -632 0
631 -632 0
-626 -631 632 0
193 -633 0
51 -633 0
-193 -51 633 0
-632 630 0
-633 630 0
632 633 -630 0
52 194 -635 0
-52 194 635 0
52 -194 635 0
-52 -194 -635 0
635 630 -336 0
-635 630 336 0
635 -630 336 0
-635 -630 -336 0
630 -636 0
635 -636 0
-630 -635 636 0
194 -637 0
52 -637 0
-194 -52 637 0
-636 634 0
-637 634 0
636 637 -634 0
53 195 -639 0
-53 195 639 0
53 -195 639 0
-53 -195 -639 0
639 634 -337 0
-639 634 337 0
639 -634 337 0
-639 -634 -337 0
634 -640 0
639 -640 0
-634 -639 640 0
195 -641 0
53 -641 0
-195 -53 641 0
-640 638 0
-641 638 0
640 641 -638 0
54 196 -643 0
-54 196 643 0
54 -196 643 0
-54 -196 -643 0
643 638 -338 0
-643 638 338 0
643 -638 338 0
-643 -638 -338 0
638 -644 0
643 -644 0
-638 -643 644 0
196 -645 0
54 -645 0
-196 -54 645 0
-644 642 0
-645 642 0
644 645 -642 0
55 197 -647 0
-55 197 647 0
55 -197 647 0
-55 -197 -647 0
647 642 -339 0
-647 642 339 0
647 -642 339 0
-647 -642 -339 0
642 -648 0
647 -648 0
-642 -647 648 0
197 -649 0
55 -649 0
-197 -55 649 0
-648 646 0
-649 646 0
648 649 -646 0
56 198 -651 0
-56 198 651 0
56 -198 651 0
-56 -198 -651 0
651 646 -340 0
-651 646 340 0
651 -646 340 0
-651 -646 -340 0
646 -652 0
651 -652 0
-646 -651 652 0
198 -653 0
56 -653 0
-198 -56 653 0
-652 650 0
-653 650 0
652 653 -650 0
57 199 -655 0
-57 199 655 0
57 -199 655 0
-57 -199 -655 0
655 650 -341 0
-655 650 341 0
655 -650 341 0
-655 -650 -341 0
650 -656 0
655 -656 0
-650 -655 656 0
199 -657 0
57 -657 0
-199 -57 657 0
-656 654 0
-657 654 0
656 657 -654 0
58 200 -659 0
-58 200 659 0
58 -200 659 0
-58 -200 -659 0
659 654 -342 0
-659 654 342 0
659 -654 342 0
-659 -654 -342 0
654 -660 0
659 -660 0
-654 -659 660 0
200 -661 0
58 -661 0
-200 -58 661 0
-660 658 0
-661 658 0
660 661 -658 0
59 201 -663 0
-59 201 663 0
59 -201 663 0
-59 -201 -663 0
663 658 -343 0
-663 658 343 0
663 -658 343 0
-663 -658 -343 0
658 -664 0
663 -664 0
-658 -663 664 0
201 -665 0
59 -665 0
-201 -59 665 0
-664 662 0
-665 662 0
664 665 -662 0
60 202 -667 0
-60 202 667 0
60 -202 667 0
-60 -202 -667 0
667 662 -344 0
-667 662 344 0
667 -662 344 0
-667 -662 -344 0
662 -668 0
667 -668 0
-662 -667 668 0
202 -669 0
60 -669 0
-202 -60 669 0
-668 666 0
-669 666 0
668 669 -666 0
61 203 -671 0
-61 203 671 0
61 -203 671 0
-61 -203 -671 0
671 666 -345 0
-671 666 345 0
671 -666 345 0
-671 -666 -345 0
666 -672 0
671 -672 0
-666 -671 672 0
203 -673 0
61 -673 0
-203 -61 673 0
-672 670 0
-673 670 0
672 673 -670 0
62 204 -675 0
-62 204 675 0
62 -204 675 0
-62 -204 -675 0
675 670 -346 0
-675 670 346 0
675 -670 346 0
-675 -670 -346 0
670 -676 0
675 -676 0
-670 -675 676 0
204 -677 0
62 -677 0
-204 -62 677 0
-676 674 0
-677 674 0
676 677 -674 0
63 205 -679 0
-63 205 679 0
63 -205 679 0
-63 -205 -679 0
679 674 -347 0
-679 674 347 0
679 -674 347 0
-679 -674 -347 0
674 -680 0
679 -680 0
-674 -679 680 0
205 -681 0
63 -681 0
-205 -63 681 0
-680 678 0
-681 678 0
680 681 -678 0
64 206 -683 0
-64 206 683 0
64 -206 683 0
-64 -206 -683 0
683 678 -348 0
-683 678 348 0
683 -678 348 0
-683 -678 -348 0
678 -684 0
683 -684 0
-678 -683 684 0
206 -685 0
64 -685 0
-206 -64 685 0
-684 682 0
-685 682 0
684 685 -682 0
65 207 -687 0
-65 207 687 0
65 -207 687 0
-65 -207 -687 0
687 682 -349 0
-687 682 349 0
687 -682 349 0
-687 -682 -349 0
682 -688 0
687 -688 0
-682 -687 688 0
207 -689 0
65 -689 0
-207 -65 689 0
-688 686 0
-689 686 0
688 689 -686 0
66 208 -691 0
-66 208 691 0
66 -208 691 0
-66 -208 -691 0
691 686 -350 0
-691 686 350 0
691 -686 350 0
-691 -686 -350 0
686 -692 0
691 -692 0
-686 -691 692 0
208 -693 0
66 -693 0
-208 -66 693 0
-692 690 0
-693 690 0
692 693 -690 0
67 209 -695 0
-67 209 695 0
67 -209 695 0
-67 -209 -695 0
695 690 -351 0
-695 690 351 0
695 -690 351 0
-695 -690 -351 0
690 -696 0
695 -696 0
-690 -695 696 0
209 -697 0
67 -697 0
-209 -67 697 0
-696 694 0
-697 694 0
696 697 -694 0
68 210 -699 0
-68 210 699 0
68 -210 699 0
-68 -210 -699 0
699 694 -352 0
-699 694 352 0
699 -694 352 0
-699 -694 -352 0
694 -700 0
699 -700 0
-694 -699 700 0
210 -701 0
68 -701 0
-210 -68 701 0
-700 698 0
-701 698 0
700 701 -698 0
69 211 -703 0
-69 211 703 0
69 -211 703 0
-69 -211 -703 0
703 698 -353 0
-703 698 353 0
703 -698 353 0
-703 -698 -353 0
698 -704 0
703 -704 0
-698 -703 704 0
211 -705 0
69 -705 0
-211 -69 705 0
-704 702 0
-705 702 0
704 705 -702 0
70 212 -707 0
-70 212 707 0
70 -212 707 0
-70 -212 -707 0
707 702 -354 0
-707 702 354 0
707 -702 354 0
-707 -702 -354 0
702 -708 0
707 -708 0
-702 -707 708 0
212 -709 0
70 -709 0
-212 -70 709 0
-708 706 0
-709 706 0
708 709 -706 0
71 213 -711 0
-71 213 711 0
71 -213 711 0
-71 -213 -711 0
711 706 -355 0
-711 706 355 0
711 -706 355 0
-711 -706 -355 0
706 -712 0
711 -712 0
-706 -711 712 0
213 -713 0
71 -713 0
-213 -71 713 0
-712 710 0
-713 710 0
712 713 -710 0
72 214 -715 0
-72 214 715 0
72 -214 715 0
-72 -214 -715 0
715 710 -356 0
-715 710 356 0
715 -710 356 0
-715 -710 -356 0
710 -716 0
715 -716 0
-710 -715 716 0
214 -717 0
72 -717 0
-214 -72 717 0
-716 714 0
-717 714 0
716 717 -714 0
73 215 -719 0
-73 215 719 0
73 -215 719 0
-73 -215 -719 0
719 714 -357 0
-719 714 357 0
719 -714 357 0
-719 -714 -357 0
714 -720 0
719 -720 0
-714 -719 720 0
215 -721 0
73 -721 0
-215 -73 721 0
-720 718 0
-721 718 0
720 721 -718 0
74 216 -723 0
-74 216 723 0
74 -216 723 0
-74 -216 -723 0
723 718 -358 0
-723 718 358 0
723 -718 358 0
-723 -718 -358 0
718 -724 0
723 -724 0
-718 -723 724 0
216 -725 0
74 -725 0
-216 -74 725 0
-724 722 0
-725 722 0
724 725 -722 0
75 217 -727 0
-75 217 727 0
75 -217 727 0
-75 -217 -727 0
727 722 -359 0
-727 722 359 0
727 -722 359 0
-727 -722 -359 0
722 -728 0
727 -728 0
-722 -727 728 0
217 -729 0
75 -729 0
-217 -75 729 0
-728 726 0
-729 726 0
728 729 -726 0
76 218 -731 0
-76 218 731 0
76 -218 731 0
-76 -218 -731 0
731 726 -360 0
-731 726 360 0
731 -726 360 0
-731 -726 -360 0
726 -732 0
731 -732 0
-726 -731 732 0
218 -733 0
76 -733 0
-218 -76 733 0
-732 730 0
-733 730 0
732 733 -730 0
77 219 -735 0
-77 219 735 0
77 -219 735 0
-77 -219 -735 0
735 730 -361 0
-735 730 361 0
735 -730 361 0
-735 -730 -361 0
730 -736 0
735 -736 0
-730 -735 736 0
219 -737 0
77 -737 0
-219 -77 737 0
-736 734 0
-737 734 0
736 737 -734 0
78 220 -739 0
-78 220 739 0
78 -220 739 0
-78 -220 -739 0
739 734 -362 0
-739 734 362 0
739 -734 362 0
-739 -734 -362 0
734 -740 0
739 -740 0
-734 -739 740 0
220 -741 0
78 -741 0
-220 -78 741 0
-740 738 0
-741 738 0
740 741 -738 0
79 221 -743 0
-79 221 743 0
79 -221 743 0
-79 -221 -743 0
743 738 -363 0
-743 738 363 0
743 -738 363 0
-743 -738 -363 0
738 -744 0
743 -744 0
-738 -743 744 0
221 -745 0
79 -745 0
-221 -79 745 0
-744 742 0
-745 742 0
744 745 -742 0
80 222 -747 0
-80 222 747 0
80 -222 747 0
-80 -222 -747 0
747 742 -364 0
-747 742 364 0
747 -742 364 0
-747 -742 -364 0
742 -748 0
747 -748 0
-742 -747 748 0
222 -749 0
80 -749 0
-222 -80 749 0
-748 746 0
-749 746 0
748 749 -746 0
81 223 -751 0
-81 223 751 0
81 -223 751 0
-81 -223 -751 0
751 746 -365 0
-751 746 365 0
751 -746 365 0
-751 -746 -365 0
746 -752 0
751 -752 0
-746 -751 752 0
223 -753 0
81 -753 0
-223 -81 753 0
-752 750 0
-753 750 0
752 753 -750 0
82 224 -755 0
-82 224 755 0
82 -224 755 0
-82 -224 -755 0
755 750 -366 0
-755 750 366 0
755 -750 366 0
-755 -750 -366 0
750 -756 0
755 -756 0
-750 -755 756 0
224 -757 0
82 -757 0
-224 -82 757 0
-756 754 0
-757 754 0
756 757 -754 0
83 225 -759 0
-83 225 759 0
83 -225 759 0
-83 -225 -759 0
759 754 -367 0
-759 754 367 0
759 -754 367 0
-759 -754 -367 0
754 -760 0
759 -760 0
-754 -759 760 0
225 -761 0
83 -761 0
-225 -83 761 0
-760 758 0
-761 758 0
760 761 -758 0
84 226 -763 0
-84 226 763 0
84 -226 763 0
-84 -226 -763 0
763 758 -368 0
-763 758 368 0
763 -758 368 0
-763 -758 -368 0
758 -764 0
763 -764 0
-758 -763 764 0
226 -765 0
84 -765 0
-226 -84 765 0
-764 762 0
-765 762 0
764 765 -762 0
85 227 -767 0
-85 227 767 0
85 -227 767 0
-85 -227 -767 0
767 762 -369 0
-767 762 369 0
767 -762 369 0
-767 -762 -369 0
762 -768 0
767 -768 0
-762 -767 768 0
227 -769 0
85 -769 0
-227 -85 769 0
-768 766 0
-769 766 0
768 769 -766 0
86 228 -771 0
-86 228 771 0
86 -228 771 0
-86 -228 -771 0
771 766 -370 0
-771 766 370 0
771 -766 370 0
-771 -766 -370 0
766 -772 0
771 -772 0
-766 -771 772 0
228 -773 0
86 -773 0
-228 -86 773 0
-772 770 0
-773 770 0
772 773 -770 0
87 229 -775 0
-87 229 775 0
87 -229 775 0
-87 -229 -775 0
775 770 -371 0
-775 770 371 0
775 -770 371 0
-775 -770 -371 0
770 -776 0
775 -776 0
-770 -775 776 0
229 -777 0
87 -777 0
-229 -87 777 0
-776 774 0
-777 774 0
776 777 -774 0
88 230 -779 0
-88 230 779 0
88 -230 779 0
-88 -230 -779 0
779 774 -372 0
-779 774 372 0
779 -774 372 0
-779 -774 -372 0
774 -780 0
779 -780 0
-774 -779 780 0
230 -781 0
88 -781 0
-230 -88 781 0
-780 778 0
-781 778 0
780 781 -778 0
89 231 -783 0
-89 231 783 0
89 -231 783 0
-89 -231 -783 0
783 778 -373 0
-783 778 373 0
783 -778 373 0
-783 -778 -373 0
778 -784 0
783 -784 0
-778 -783 784 0
231 -785 0
89 -785 0
-231 -89 785 0
-784 782 0
-785 782 0
784 785 -782 0
90 232 -787 0
-90 232 787 0
90 -232 787 0
-90 -232 -787 0
787 782 -374 0
-787 782 374 0
787 -782 374 0
-787 -782 -374 0
782 -788 0
787 -788 0
-782 -787 788 0
232 -789 0
90 -789 0
-232 -90 789 0
-788 786 0
-789 786 0
788 789 -786 0
91 233 -791 0
-91 233 791 0
91 -233 791 0
-91 -233 -791 0
791 786 -375 0
-791 786 375 0
791 -786 375 0
-791 -786 -375 0
786 -792 0
791 -792 0
-786 -791 792 0
233 -793 0
91 -793 0
-233 -91 793 0
-792 790 0
-793 790 0
792 793 -790 0
92 234 -795 0
-92 234 795 0
92 -234 795 0
-92 -234 -795 0
795 790 -376 0
-795 790 376 0
795 -790 376 0
-795 -790 -376 0
790 -796 0
795 -796 0
-790 -795 796 0
234 -797 0
92 -797 0
-234 -92 797 0
-796 794 0
-797 794 0
796 797 -794 0
93 235 -799 0
-93 235 799 0
93 -235 799 0
-93 -235 -799 0
799 794 -377 0
-799 794 377 0
799 -794 377 0
-799 -794 -377 0
794 -800 0
799 -800 0
-794 -799 800 0
235 -801 0
93 -801 0
-235 -93 801 0
-800 798 0
-801 798 0
800 801 -798 0
94 236 -803 0
-94 236 803 0
94 -236 803 0
-94 -236 -803 0
803 798 -378 0
-803 798 378 0
803 -798 378 0
-803 -798 -378 0
798 -804 0
803 -804 0
-798 -803 804 0
236 -805 0
94 -805 0
-236 -94 805 0
-804 802 0
-805 802 0
804 805 -802 0
95 237 -807 0
-95 237 807 0
95 -237 807 0
-95 -237 -807 0
807 802 -379 0
-807 802 379 0
807 -802 379 0
-807 -802 -379 0
802 -808 0
807 -808 0
-802 -807 808 0
237 -809 0
95 -809 0
-237 -95 809 0
-808 806 0
-809 806 0
808 809 -806 0
96 238 -811 0
-96 238 811 0
96 -238 811 0
-96 -238 -811 0
811 806 -380 0
-811 806 380 0
811 -806 380 0
-811 -806 -380 0
806 -812 0
811 -812 0
-806 -811 812 0
238 -813 0
96 -813 0
-238 -96 813 0
-812 810 0
-813 810 0
812 813 -810 0
97 239 -815 0
-97 239 815 0
97 -239 815 0
-97 -239 -815 0
815 810 -381 0
-815 810 381 0
815 -810 381 0
-815 -810 -381 0
810 -816 0
815 -816 0
-810 -815 816 0
239 -817 0
97 -817 0
-239 -97 817 0
-816 814 0
-817 814 0
816 817 -814 0
98 240 -819 0
-98 240 819 0
98 -240 819 0
-98 -240 -819 0
819 814 -382 0
-819 814 382 0
819 -814 382 0
-819 -814 -382 0
814 -820 0
819 -820 0
-814 -819 820 0
240 -821 0
98 -821 0
-240 -98 821 0
-820 818 0
-821 818 0
820 821 -818 0
99 241 -823 0
-99 241 823 0
99 -241 823 0
-99 -241 -823 0
823 818 -383 0
-823 818 383 0
823 -818 383 0
-823 -818 -383 0
818 -824 0
823 -824 0
-818 -823 824 0
241 -825 0
99 -825 0
-241 -99 825 0
-824 822 0
-825 822 0
824 825 -822 0
100 242 -827 0
-100 242 827 0
100 -242 827 0
-100 -242 -827 0
827 822 -384 0
-827 822 384 0
827 -822 384 0
-827 -822 -384 0
822 -828 0
827 -828 0
-822 -827 828 0
242 -829 0
100 -829 0
-242 -100 829 0
-828 826 0
-829 826 0
828 829 -826 0
101 243 -831 0
-101 243 831 0
101 -243 831 0
-101 -243 -831 0
831 826 -385 0
-831 826 385 0
831 -826 385 0
-831 -826 -385 0
826 -832 0
831 -832 0
-826 -831 832 0
243 -833 0
101 -833 0
-243 -101 833 0
-832 830 0
-833 830 0
832 833 -830 0
102 244 -835 0
-102 244 835 0
102 -244 835 0
-102 -244 -835 0
835 830 -386 0
-835 830 386 0
835 -830 386 0
-835 -830 -386 0
830 -836 0
835 -836 0
-830 -835 836 0
244 -837 0
102 -837 0
-244 -102 837 0
-836 834 0
-837 834 0
836 837 -834 0
103 245 -839 0
-103 245 839 0
103 -245 839 0
-103 -245 -839 0
839 834 -387 0
-839 834 387 0
839 -834 387 0
-839 -834 -387 0
834 -840 0
839 -840 0
-834 -839 840 0
245 -841 0
103 -841 0
-245 -103 841 0
-840 838 0
-841 838 0
840 841 -838 0
104 246 -843 0
-104 246 843 0
104 -246 843 0
-104 -246 -843 0
843 838 -388 0
-843 838 388 0
843 -838 388 0
-843 -838 -388 0
838 -844 0
843 -844 0
-838 -843 844 0
246 -845 0
104 -845 0
-246 -104 845 0
-844 842 0
-845 842 0
844 845 -842 0
105 247 -847 0
-105 247 847 0
105 -247 847 0
-105 -247 -847 0
847 842 -389 0
-847 842 389 0
847 -842 389 0
-847 -842 -389 0
842 -848 0
847 -848 0
-842 -847 848 0
247 -849 0
105 -849 0
-247 -105 849 0
-848 846 0
-849 846 0
848 849 -846 0
106 248 -851 0
-106 248 851 0
106 -248 851 0
-106 -248 -851 0
851 846 -390 0
-851 846 390 0
851 -846 390 0
-851 -846 -390 0
846 -852 0
851 -852 0
-846 -851 852 0
248 -853 0
106 -853 0
-248 -106 853 0
-852 850 0
-853 850 0
852 853 -850 0
107 249 -855 0
-107 249 855 0
107 -249 855 0
-107 -249 -855 0
855 850 -391 0
-855 850 391 0
855 -850 391 0
-855 -850 -391 0
850 -856 0
855 -856 0
-850 -855 856 0
249 -857 0
107 -857 0
-249 -107 857 0
-856 854 0
-857 854 0
856 857 -854 0
108 250 -859 0
-108 250 859 0
108 -250 859 0
-108 -250 -859 0
859 854 -392 0
-859 854 392 0
859 -854 392 0
-859 -854 -392 0
854 -860 0
859 -860 0
-854 -859 860 0
250 -861 0
108 -861 0
-250 -108 861 0
-860 858 0
-861 858 0
860 861 -858 0
109 251 -863 0
-109 251 863 0
109 -251 863 0
-109 -251 -863 0
863 858 -393 0
-863 858 393 0
863 -858 393 0
-863 -858 -393 0
858 -864 0
863 -864 0
-858 -863 864 0
251 -865 0
109 -865 0
-251 -109 865 0
-864 862 0
-865 862 0
864 865 -862 0
110 252 -867 0
-110 252 867 0
110 -252 867 0
-110 -252 -867 0
867 862 -394 0
-867 862 394 0
867 -862 394 0
-867 -862 -394 0
862 -868 0
867 -868 0
-862 -867 868 0
252 -869 0
110 -869 0
-252 -110 869 0
-868 866 0
-869 866 0
868 869 -866 0
111 253 -871 0
-111 253 871 0
111 -253 871 0
-111 -253 -871 0
871 866 -395 0
-871 866 395 0
871 -866 395 0
-871 -866 -395 0
866 -872 0
871 -872 0
-866 -871 872 0
253 -873 0
111 -873 0
-253 -111 873 0
-872 870 0
-873 870 0
872 873 -870 0
112 254 -875 0
-112 254 875 0
112 -254 875 0
-112 -254 -875 0
875 870 -396 0
-875 870 396 0
875 -870 396 0
-875 -870 -396 0
870 -876 0
875 -876 0
-870 -875 876 0
254 -877 0
112 -877 0
-254 -112 877 0
-876 874 0
-877 874 0
876 877 -874 0
113 255 -879 0
-113 255 879 0
113 -255 879 0
-113 -255 -879 0
879 874 -397 0
-879 874 397 0
879 -874 397 0
-879 -874 -397 0
874 -880 0
879 -880 0
-874 -879 880 0
255 -881 0
113 -881 0
-255 -113 881 0
-880 878 0
-881 878 0
880 881 -878 0
114 256 -883 0
-114 256 883 0
114 -256 883 0
-114 -256 -883 0
883 878 -398 0
-883 878 398 0
883 -878 398 0
-883 -878 -398 0
878 -884 0
883 -884 0
-878 -883 884 0
256 -885 0
114 -885 0
-256 -114 885 0
-884 882 0
-885 882 0
884 885 -882 0
115 257 -887 0
-115 257 887 0
115 -257 887 0
-115 -257 -887 0
887 882 -399 0
-887 882 399 0
887 -882 399 0
-887 -882 -399 0
882 -888 0
887 -888 0
-882 -887 888 0
257 -889 0
115 -889 0
-257 -115 889 0
-888 886 0
-889 886 0
888 889 -886 0
116 258 -891 0
-116 258 891 0
116 -258 891 0
-116 -258 -891 0
891 886 -400 0
-891 886 400 0
891 -886 400 0
-891 -886 -400 0
886 -892 0
891 -892 0
-886 -891 892 0
258 -893 0
116 -893 0
-258 -116 893 0
-892 890 0
-893 890 0
892 893 -890 0
117 259 -895 0
-117 259 895 0
117 -259 895 0
-117 -259 -895 0
895 890 -401 0
-895 890 401 0
895 -890 401 0
-895 -890 -401 0
890 -896 0
895 -896 0
-890 -895 896 0
259 -897 0
117 -897 0
-259 -117 897 0
-896 894 0
-897 894 0
896 897 -894 0
118 260 -899 0
-118 260 899 0
118 -260 899 0
-118 -260 -899 0
899 894 -402 0
-899 894 402 0
899 -894 402 0
-899 -894 -402 0
894 -900 0
899 -900 0
-894 -899 900 0
260 -901 0
118 -901 0
-260 -118 901 0
-900 898 0
-901 898 0
900 901 -898 0
119 261 -903 0
-119 261 903 0
119 -261 903 0
-119 -261 -903 0
903 898 -403 0
-903 898 403 0
903 -898 403 0
-903 -898 -403 0
898 -904 0
903 -904 0
-898 -903 904 0
261 -905 0
119 -905 0
-261 -119 905 0
-904 902 0
-905 902 0
904 905 -902 0
120 262 -907 0
-120 262 907 0
120 -262 907 0
-120 -262 -907 0
907 902 -404 0
-907 902 404 0
907 -902 404 0
-907 -902 -404 0
902 -908 0
907 -908 0
-902 -907 908 0
262 -909 0
120 -909 0
-262 -120 909 0
-908 906 0
-909 906 0
908 909 -906 0
121 263 -911 0
-121 263 911 0
121 -263 911 0
-121 -263 -911 0
911 906 -405 0
-911 906 405 0
911 -906 405 0
-911 -906 -405 0
906 -912 0
911 -912 0
-906 -911 912 0
263 -913 0
121 -913 0
-263 -121 913 0
-912 910 0
-913 910 0
912 913 -910 0
122 264 -915 0
-122 264 915 0
122 -264 915 0
-122 -264 -915 0
915 910 -406 0
-915 910 406 0
915 -910 406 0
-915 -910 -406 0
910 -916 0
915 -916 0
-910 -915 916 0
264 -917 0
122 -917 0
-264 -122 917 0
-916 914 0
-917 914 0
916 917 -914 0
123 265 -919 0
-123 265 919 0
123 -265 919 0
-123 -265 -919 0
919 914 -407 0
-919 914 407 0
919 -914 407 0
-919 -914 -407 0
914 -920 0
919 -920 0
-914 -919 920 0
265 -921 0
123 -921 0
-265 -123 921 0
-920 918 0
-921 918 0
920 921 -918 0
124 266 -923 0
-124 266 923 0
124 -266 923 0
-124 -266 -923 0
923 918 -408 0
-923 918 408 0
923 -918 408 0
-923 -918 -408 0
918 -924 0
923 -924 0
-918 -923 924 0
266 -925 0
124 -925 0
-266 -124 925 0
-924 922 0
-925 922 0
924 925 -922 0
125 267 -927 0
-125 267 927 0
125 -267 927 0
-125 -267 -927 0
927 922 -409 0
-927 922 409 0
927 -922 409 0
-927 -922 -409 0
922 -928 0
927 -928 0
-922 -927 928 0
267 -929 0
125 -929 0
-267 -125 929 0
-928 926 0
-929 926 0
928 929 -926 0
126 268 -931 0
-126 268 931 0
126 -268 931 0
-126 -268 -931 0
931 926 -410 0
-931 926 410 0
931 -926 410 0
-931 -926 -410 0
926 -932 0
931 -932 0
-926 -931 932 0
268 -933 0
126 -933 0
-268 -126 933 0
-932 930 0
-933 930 0
932 933 -930 0
127 269 -935 0
-127 269 935 0
127 -269 935 0
-127 -269 -935 0
935 930 -411 0
-935 930 411 0
935 -930 411 0
-935 -930 -411 0
930 -936 0
935 -936 0
-930 -935 936 0
269 -937 0
127 -937 0
-269 -127 937 0
-936 934 0
-937 934 0
936 937 -934 0
128 270 -939 0
-128 270 939 0
128 -270 939 0
-128 -270 -939 0
939 934 -412 0
-939 934 412 0
939 -934 412 0
-939 -934 -412 0
934 -940 0
939 -940 0
-934 -939 940 0
270 -941 0
128 -941 0
-270 -128 941 0
-940 938 0
-941 938 0
940 941 -938 0
129 271 -943 0
-129 271 943 0
129 -271 943 0
-129 -271 -943 0
943 938 -413 0
-943 938 413 0
943 -938 413 0
-943 -938 -413 0
938 -944 0
943 -944 0
-938 -943 944 0
271 -945 0
129 -945 0
-271 -129 945 0
-944 942 0
-945 942 0
944 945 -942 0
130 272 -947 0
-130 272 947 0
130 -272 947 0
-130 -272 -947 0
947 942 -414 0
-947 942 414 0
947 -942 414 0
-947 -942 -414 0
942 -948 0
947 -948 0
-942 -947 948 0
272 -949 0
130 -949 0
-272 -130 949 0
-948 946 0
-949 946 0
948 949 -946 0
131 273 -951 0
-131 273 951 0
131 -273 951 0
-131 -273 -951 0
951 946 -415 0
-951 946 415 0
951 -946 415 0
-951 -946 -415 0
946 -952 0
951 -952 0
-946 -951 952 0
273 -953 0
131 -953 0
-273 -131 953 0
-952 950 0
-953 950 0
952 953 -950 0
132 274 -955 0
-132 274 955 0
132 -274 955 0
-132 -274 -955 0
955 950 -416 0
-955 950 416 0
955 -950 416 0
-955 -950 -416 0
950 -956 0
955 -956 0
-950 -955 956 0
274 -957 0
132 -957 0
-274 -132 957 0
-956 954 0
-957 954 0
956 957 -954 0
133 275 -959 0
-133 275 959 0
133 -275 959 0
-133 -275 -959 0
959 954 -417 0
-959 954 417 0
959 -954 417 0
-959 -954 -417 0
954 -960 0
959 -960 0
-954 -959 960 0
275 -961 0
133 -961 0
-275 -133 961 0
-960 958 0
-961 958 0
960 961 -958 0
134 276 -963 0
-134 276 963 0
134 -276 963 0
-134 -276 -963 0
963 958 -418 0
-963 958 418 0
963 -958 418 0
-963 -958 -418 0
958 -964 0
963 -964 0
-958 -963 964 0
276 -965 0
134 -965 0
-276 -134 965 0
-964 962 0
-965 962 0
964 965 -962 0
135 277 -967 0
-135 277 967 0
135 -277 967 0
-135 -277 -967 0
967 962 -419 0
-967 962 419 0
967 -962 419 0
-967 -962 -419 0
962 -968 0
967 -968 0
-962 -967 968 0
277 -969 0
135 -969 0
-277 -135 969 0
-968 966 0
-969 966 0
968 969 -966 0
136 278 -971 0
-136 278 971 0
136 -278 971 0
-136 -278 -971 0
971 966 -420 0
-971 966 420 0
971 -966 420 0
-971 -966 -420 0
966 -972 0
971 -972 0
-966 -971 972 0
278 -973 0
136 -973 0
-278 -136 973 0
-972 970 0
-973 970 0
972 973 -970 0
137 279 -975 0
-137 279 975 0
137 -279 975 0
-137 -279 -975 0
975 970 -421 0
-975 970 421 0
975 -970 421 0
-975 -970 -421 0
970 -976 0
975 -976 0
-970 -975 976 0
279 -977 0
137 -977 0
-279 -137 977 0
-976 974 0
-977 974 0
976 977 -974 0
138 280 -979 0
-138 280 979 0
138 -280 979 0
-138 -280 -979 0
979 974 -422 0
-979 974 422 0
979 -974 422 0
-979 -974 -422 0
974 -980 0
979 -980 0
-974 -979 980 0
280 -981 0
138 -981 0
-280 -138 981 0
-980 978 0
-981 978 0
980 981 -978 0
139 281 -983 0
-139 281 983 0
139 -281 983 0
-139 -281 -983 0
983 978 -423 0
-983 978 423 0
983 -978 423 0
-983 -978 -423 0
978 -984 0
983 -984 0
-978 -983 984 0
281 -985 0
139 -985 0
-281 -139 985 0
-984 982 0
-985 982 0
984 985 -982 0
140 282 -987 0
-140 282 987 0
140 -282 987 0
-140 -282 -987 0
987 982 -424 0
-987 982 424 0
987 -982 424 0
-987 -982 -424 0
982 -988 0
987 -988 0
-982 -987 988 0
282 -989 0
140 -989 0
-282 -140 989 0
-988 986 0
-989 986 0
988 989 -986 0
141 283 -991 0
-141 283 991 0
141 -283 991 0
-141 -283 -991 0
991 986 -425 0
-991 986 425 0
991 -986 425 0
-991 -986 -425 0
986 -992 0
991 -992 0
-986 -991 992 0
283 -993 0
141 -993 0
-283 -141 993 0
-992 990 0
-993 990 0
992 993 -990 0
142 284 -994 0
-142 284 994 0
142 -284 994 0
-142 -284 -994 0
994 990 -426 0
-994 990 426 0
994 -990 426 0
-994 -990 -426 0
990 -995 0
994 -995 0
-990 -994 995 0
284 -996 0
142 -996 0
-284 -142 996 0
-995 427 0
-996 427 0
995 996 -427 0
